# ================================================================
# Orca input file
# ================================================================
! {method} {basis} VeryTightSCF UseSym
! PAL4

%scf
  Guess = HCore
end

%basis
{external_basis}
{external_ecp}
end

* xyzfile {charge} {multiplicity} ../../../../chem_database/{molecule}.xyz
