# ================================================================
# Orca input file
# ================================================================
! RI-{method} {basis} def2-QZVPP/C VeryTightSCF UseSym
{extra_params}
{procs}

%mp2
  density unrelaxed
  natorbs true
end

{extra_basis}

* xyzfile {charge} {multiplicity} ../../../../chem_database/{molecule}.xyz
