$comment0
$end

$rem
SYMMETRY              false
SYM_IGNORE            true
BASIS                 {basis}
METHOD                {method}
MAX_SCF_CYCLES        100
SCF_CONVERGENCE       8
SCF_ALGORITHM         {algorithm}
MEM_STATIC            2000
STABILITY_ANALYSIS    {stability_analysis}
SET_ITER              100
MOLDEN_FORMAT         true
PRINT_ORBITALS        2000
$end

$molecule
READ                  ../chem_database/{molecule}.in
