# ================================================================
# Orca input file
# ================================================================
! HF def2-QZVP VeryTightSCF UseSym

! PAL4

%scf
  STABPerform true
#  STABRestartUHFifUnstable true
end



* xyzfile 0 2 ../../../../chem_database/Li.xyz
